<number of tasks>
20


<number of equipment>
5


<cycle time>
1000


<investment costs>
1,8361
2,23661
3,15645
4,9721
5,15360


<task times>
1,746,571,-1,-1,618
2,727,417,-1,-1,577
3,686,370,-1,-1,537
4,-1,473,581,554,-1
5,-1,422,595,696,-1
6,-1,432,579,541,-1
7,-1,-1,-1,705,604
8,-1,298,541,609,-1
9,-1,-1,-1,720,615
10,801,490,-1,-1,614
11,-1,414,474,422,-1
12,-1,-1,-1,677,502
13,-1,402,559,436,-1
14,606,430,-1,-1,600
15,728,419,-1,-1,591
16,708,433,-1,-1,485
17,752,445,-1,-1,602
18,637,423,-1,-1,587
19,-1,425,590,704,-1
20,705,485,-1,-1,605


<precedence relations>
1,8
2,6
3,7
6,9
8,10
8,11
8,12
8,13
9,17
10,14
11,16
13,15
15,20
16,18
17,19


<task types>
1,3
2,3
3,3
4,2
5,2
6,2
7,1
8,2
9,1
10,3
11,2
12,1
13,2
14,3
15,3
16,3
17,3
18,3
19,2
20,3


<line depot>
1,10
2,0
3,0
4,8
5,0


<processing costs>
1,7200
2,14400
3,7200
4,14400
5,14400


<saving costs>
1,836
2,2366
3,1564
4,972
5,1536


<end>
